p td 120 118
0 5
0 49
1 76
1 113
2 6
3 35
3 38
3 42
4 90
4 91
5 62
6 11
6 100
6 107
7 80
8 26
8 40
8 61
8 70
9 48
10 15
11 79
11 87
12 56
13 104
14 106
15 41
16 19
16 64
16 95
16 107
16 115
17 23
17 41
17 77
18 30
18 97
19 47
19 62
19 69
19 83
20 64
21 23
22 64
22 74
22 82
23 68
23 99
27 88
27 90
27 106
28 48
29 70
30 55
30 58
32 37
32 111
34 39
34 67
37 117
38 66
38 83
39 91
39 94
40 112
41 85
42 86
43 45
43 77
43 78
43 80
44 116
46 91
48 64
48 78
49 68
49 92
51 58
51 99
52 75
52 96
52 113
53 69
53 109
54 112
56 111
58 66
58 69
60 91
60 93
61 92
64 95
64 99
64 119
65 114
66 76
67 111
68 99
68 105
69 109
70 95
70 104
73 85
76 100
80 84
80 100
80 102
83 110
93 108
95 103
95 115
96 100
98 109
100 117
102 110
104 112
105 112
108 119
